2 100 831
3 0 7 4 7 4 3 2 5 3
2 4
1 5
5 8 4 6
0 35.0 35.0 0.0 0.0 0 230
2 41.0 49.0 10.0 10.0 0 204 20 0 0 0 0 1 0 0 0 0 0
3 35.0 17.0 10.0 7.0 0 202 0 0 0 0 1 0 0 1 1 0 0
4 55.0 45.0 10.0 13.0 0 197 1 0 0 0 0 1 1 0 0 0 0
5 55.0 20.0 10.0 19.0 149 159 5 0 0 0 0 1 1 0 1 1 1
6 15.0 30.0 10.0 26.0 0 199 41 1 0 0 0 1 0 0 0 1 0
7 25.0 30.0 10.0 3.0 99 109 65 0 1 0 0 0 0 0 1 0 0
8 20.0 50.0 10.0 5.0 0 198 99 1 0 1 0 0 0 0 0 0 0
9 10.0 43.0 10.0 9.0 95 105 99 0 0 1 0 0 0 0 0 0 0
10 55.0 60.0 10.0 16.0 97 107 37 0 0 0 0 0 1 0 0 1 1
11 30.0 60.0 10.0 16.0 124 134 6 0 0 0 0 0 0 0 0 0 1
12 20.0 65.0 10.0 12.0 67 77 5 0 0 1 0 0 0 1 0 0 0
13 50.0 35.0 10.0 19.0 0 205 7 0 0 1 0 0 1 0 0 1 0
14 30.0 25.0 10.0 23.0 159 169 30 1 0 0 0 0 1 0 0 0 0
15 15.0 10.0 10.0 20.0 0 187 10 1 0 1 0 0 0 0 0 0 1
16 30.0 5.0 10.0 8.0 61 71 30 0 0 0 0 0 1 0 0 0 1
17 10.0 20.0 10.0 19.0 0 190 99 0 0 1 1 1 0 1 0 0 0
18 5.0 30.0 10.0 2.0 157 167 63 1 1 0 0 0 0 0 0 0 0
19 20.0 40.0 10.0 12.0 0 204 7 0 0 0 1 0 0 1 0 0 0
20 15.0 60.0 10.0 17.0 0 187 7 0 1 0 0 0 0 0 0 0 0
21 45.0 65.0 10.0 9.0 0 188 17 0 0 0 0 0 0 0 1 0 1
22 45.0 20.0 10.0 11.0 0 201 26 0 0 0 0 0 0 0 1 0 0
23 45.0 10.0 10.0 18.0 97 107 68 0 0 1 0 0 0 1 0 0 0
24 55.0 5.0 10.0 29.0 68 78 44 0 0 0 0 1 1 0 0 0 0
25 65.0 35.0 10.0 3.0 0 190 11 0 0 1 0 0 0 0 1 1 1
26 65.0 20.0 10.0 6.0 172 182 86 0 1 0 0 0 0 0 0 0 0
27 45.0 30.0 10.0 17.0 0 208 36 0 0 0 1 0 1 0 0 1 0
28 35.0 40.0 10.0 16.0 37 47 10 1 0 0 0 0 0 0 0 0 0
29 41.0 37.0 10.0 16.0 0 213 43 1 0 0 0 0 0 0 0 0 0
30 64.0 42.0 10.0 9.0 0 190 62 0 0 0 0 0 1 0 0 0 0
31 40.0 60.0 10.0 21.0 71 81 16 0 0 1 0 0 0 0 0 0 0
32 31.0 52.0 10.0 27.0 0 202 62 0 0 0 0 0 1 0 1 0 0
33 35.0 69.0 10.0 23.0 0 186 88 0 1 0 0 0 0 0 0 0 0
34 53.0 52.0 10.0 11.0 37 47 80 0 0 0 1 0 0 0 0 0 1
35 65.0 55.0 10.0 14.0 0 183 32 0 0 0 0 0 0 1 0 0 0
36 63.0 65.0 10.0 8.0 143 153 48 0 0 0 0 0 0 0 0 1 0
37 2.0 60.0 10.0 5.0 41 51 27 0 0 0 0 0 1 0 0 0 0
38 20.0 20.0 10.0 8.0 0 198 94 0 0 0 0 0 1 0 1 0 1
39 5.0 5.0 10.0 16.0 83 93 34 1 0 0 0 0 0 0 0 0 0
40 60.0 12.0 10.0 31.0 44 54 9 0 0 1 0 1 0 0 1 1 1
41 40.0 25.0 10.0 9.0 85 95 44 1 0 0 0 0 0 0 0 0 0
42 42.0 7.0 10.0 5.0 97 107 47 0 1 0 0 0 0 1 1 0 0
43 24.0 12.0 10.0 5.0 31 41 20 0 0 0 0 0 1 0 1 0 0
44 23.0 3.0 10.0 7.0 0 185 7 0 0 1 1 0 0 0 0 0 0
45 11.0 14.0 10.0 18.0 69 79 83 0 0 0 0 1 0 0 0 0 1
46 6.0 38.0 10.0 16.0 32 42 16 0 0 0 0 0 0 0 0 1 0
47 2.0 48.0 10.0 1.0 0 184 98 0 0 0 0 0 1 0 0 0 0
48 8.0 56.0 10.0 27.0 0 185 26 0 0 0 0 0 1 0 0 0 0
49 13.0 52.0 10.0 36.0 0 192 28 0 0 0 1 0 0 0 0 0 0
50 6.0 68.0 10.0 30.0 108 118 93 0 0 1 1 0 0 0 1 0 0
51 47.0 47.0 10.0 13.0 0 203 25 0 0 0 0 1 0 0 0 0 0
52 49.0 58.0 10.0 10.0 0 193 88 0 0 0 0 0 1 0 0 0 0
53 27.0 43.0 10.0 9.0 0 208 93 0 0 0 0 0 1 0 0 0 0
54 37.0 31.0 10.0 14.0 95 105 50 1 0 0 1 0 0 0 0 0 0
55 57.0 29.0 10.0 18.0 0 197 15 0 0 0 0 1 0 0 0 0 1
56 63.0 23.0 10.0 2.0 136 146 75 1 0 0 0 0 1 0 0 0 1
57 53.0 12.0 10.0 6.0 130 140 56 1 0 0 0 0 0 0 0 0 0
58 32.0 12.0 10.0 7.0 0 196 47 0 0 0 1 1 0 0 0 1 1
59 36.0 26.0 10.0 18.0 200 210 71 0 0 1 0 0 0 0 0 1 0
60 21.0 24.0 10.0 28.0 0 202 23 0 0 1 0 1 0 1 0 0 0
61 17.0 34.0 10.0 3.0 0 201 84 1 0 0 0 0 0 0 0 0 0
62 12.0 24.0 10.0 13.0 0 194 19 0 1 0 0 1 0 1 0 0 0
63 24.0 58.0 10.0 19.0 58 68 32 0 0 0 1 0 0 1 0 0 1
64 27.0 69.0 10.0 10.0 0 185 11 0 0 0 0 1 0 1 0 1 0
65 15.0 77.0 10.0 9.0 73 83 51 0 0 0 0 0 1 0 1 0 0
66 62.0 77.0 10.0 20.0 51 61 18 0 0 0 0 0 1 0 0 0 0
67 49.0 73.0 10.0 25.0 127 137 78 1 0 0 0 0 1 0 0 0 0
68 67.0 5.0 10.0 25.0 83 93 28 1 0 0 0 0 0 0 1 0 0
69 56.0 39.0 10.0 36.0 142 152 33 1 0 0 0 1 0 0 0 0 0
70 37.0 47.0 10.0 6.0 50 60 70 0 0 0 0 0 0 0 0 1 1
71 37.0 56.0 10.0 5.0 182 192 61 0 0 0 0 0 1 0 0 0 0
72 57.0 68.0 10.0 15.0 0 180 17 0 1 0 1 0 1 1 0 0 0
73 47.0 16.0 10.0 25.0 0 197 65 0 0 0 0 0 0 1 0 0 0
74 44.0 17.0 10.0 9.0 0 199 44 0 1 0 1 0 0 0 1 1 0
75 46.0 13.0 10.0 8.0 149 159 6 0 1 0 0 0 0 0 0 0 1
76 49.0 11.0 10.0 18.0 0 192 79 0 0 0 1 0 0 0 0 0 0
77 49.0 42.0 10.0 13.0 73 83 3 0 0 1 1 1 0 0 0 0 0
78 53.0 43.0 10.0 14.0 179 189 53 0 0 1 1 0 0 0 1 0 0
79 61.0 52.0 10.0 3.0 96 106 16 0 0 0 0 0 1 0 0 0 0
80 57.0 48.0 10.0 23.0 92 102 69 1 0 0 0 1 0 0 0 0 0
81 56.0 37.0 10.0 6.0 182 192 14 0 0 0 0 0 0 0 0 0 1
82 55.0 54.0 10.0 26.0 0 192 31 0 0 0 1 0 0 0 0 1 0
83 15.0 47.0 10.0 16.0 0 196 32 0 0 0 0 0 1 0 1 0 1
84 14.0 37.0 10.0 11.0 0 198 45 0 1 0 1 0 0 1 0 0 0
85 11.0 31.0 10.0 7.0 101 111 51 0 0 0 0 0 1 1 0 0 0
86 16.0 22.0 10.0 41.0 0 196 11 0 0 1 0 0 0 0 0 0 1
87 4.0 18.0 10.0 35.0 0 184 98 0 0 0 0 0 1 0 0 0 0
88 28.0 18.0 10.0 26.0 93 103 49 0 1 0 0 0 1 0 1 0 0
89 26.0 52.0 10.0 9.0 74 84 46 0 1 0 0 0 0 0 0 1 0
90 26.0 35.0 10.0 15.0 0 211 4 0 0 0 0 0 0 1 0 0 0
91 31.0 67.0 10.0 3.0 0 187 1 0 0 0 1 0 0 0 0 0 0
92 15.0 19.0 10.0 1.0 0 194 28 1 0 0 0 0 0 0 0 0 0
93 22.0 22.0 10.0 2.0 18 28 94 0 0 0 1 0 0 1 0 0 0
94 18.0 24.0 10.0 22.0 188 198 69 1 0 0 0 0 0 0 1 0 0
95 26.0 27.0 10.0 27.0 0 207 21 0 0 1 0 0 0 0 0 0 0
96 25.0 24.0 10.0 20.0 0 205 20 0 0 0 0 0 1 0 0 0 0
97 22.0 27.0 10.0 11.0 0 204 1 1 0 1 0 0 0 1 1 1 0
98 25.0 21.0 10.0 12.0 0 202 81 0 0 0 0 1 0 0 0 0 1
99 19.0 21.0 10.0 10.0 0 198 51 0 0 0 0 0 1 1 0 0 0
100 20.0 26.0 10.0 9.0 83 93 1 0 0 0 0 0 1 0 0 0 0
101 18.0 18.0 10.0 17.0 185 195 21 0 0 0 0 0 0 0 0 1 1